Route #1: 1 1 28 17 32 12 7 30 5 1 
Route #2: 1 14 10 16 22 15 8 4 1 
Route #3: 1 29 36 23 40 31 13 1 
Route #4: 1 11 34 33 6 35 25 1 
Route #5: 1 26 19 27 38 39 9 24 1 
Route #6: 1 20 21 18 3 37 2 1 

Cost 1003.53
Time 0.2678


 * Another infos *

 Iterations: 41 Time: 0.2678 sec - 0.0045 min - 0.0001 horas
0.0000 h 0.0045 min
Problem dimension: 41
